4 
5  02 18 33 48 
6  03 13 21 29 36 44 51 59 
7  06 14 21 29 36 44 51 59 
8  06 14 21 29 36 44 52 
9  02 10 17 25 32 40 47 55 
10  02 10 17 25 32 40 47 55 
11  02 10 17 25 32 40 47 55 
12  02 10 17 25 32 40 47 55 
13  02 09 16 24 31 39 46 54 
14  01 09 16 24 31 39 46 54 
15  01 09 16 24 31 39 46 54 
16  01 09 16 24 31 39 46 54 
17  01 09 16 24 31 39 46 54 
18  01 09 16 24 33 41 48 56 
19  03 11 18 26 33 41 48 56 
20  03 11 18 26 33 41 48 56 
21  11 22 38 53 
22  09 23 39 53 
23  07 24 
0 
